U_400_6.txt

VEHICLE     CAPACITY  LOCATIONS  CUSTOMER  OPTIONS  PRIORITIES  NUMTYPS
10		150		481		400		800		3		4

CUSTOMER  DEMAND
0	 12
1	 16
2	 11
3	 18
4	 15
5	 20
6	 12
7	 15
8	 12
9	 12
10	 10
11	 10
12	 20
13	 16
14	 17
15	 10
16	 16
17	 17
18	 18
19	 16
20	 17
21	 17
22	 17
23	 10
24	 11
25	 19
26	 20
27	 15
28	 13
29	 20
30	 14
31	 10
32	 18
33	 14
34	 11
35	 20
36	 17
37	 16
38	 20
39	 18
40	 15
41	 18
42	 19
43	 11
44	 12
45	 10
46	 17
47	 16
48	 15
49	 16
50	 15
51	 10
52	 14
53	 10
54	 20
55	 11
56	 19
57	 18
58	 16
59	 15
60	 13
61	 16
62	 15
63	 14
64	 18
65	 12
66	 11
67	 18
68	 14
69	 16
70	 13
71	 10
72	 12
73	 12
74	 10
75	 17
76	 12
77	 17
78	 11
79	 10
80	 10
81	 12
82	 19
83	 18
84	 16
85	 18
86	 15
87	 13
88	 16
89	 20
90	 18
91	 19
92	 12
93	 13
94	 15
95	 15
96	 16
97	 17
98	 10
99	 15
100	 19
101	 10
102	 15
103	 15
104	 15
105	 13
106	 11
107	 17
108	 14
109	 12
110	 17
111	 15
112	 11
113	 17
114	 18
115	 15
116	 14
117	 12
118	 20
119	 13
120	 17
121	 15
122	 17
123	 19
124	 18
125	 13
126	 16
127	 17
128	 18
129	 17
130	 15
131	 16
132	 13
133	 19
134	 13
135	 15
136	 10
137	 11
138	 10
139	 11
140	 13
141	 13
142	 13
143	 13
144	 13
145	 13
146	 11
147	 14
148	 16
149	 11
150	 19
151	 20
152	 20
153	 13
154	 10
155	 13
156	 17
157	 16
158	 11
159	 20
160	 13
161	 10
162	 17
163	 12
164	 19
165	 13
166	 11
167	 19
168	 14
169	 14
170	 13
171	 10
172	 16
173	 19
174	 14
175	 17
176	 16
177	 13
178	 18
179	 14
180	 16
181	 20
182	 15
183	 18
184	 14
185	 15
186	 19
187	 10
188	 20
189	 10
190	 13
191	 12
192	 17
193	 16
194	 18
195	 13
196	 17
197	 15
198	 19
199	 16
200	 18
201	 18
202	 16
203	 11
204	 15
205	 19
206	 14
207	 12
208	 20
209	 16
210	 14
211	 17
212	 16
213	 11
214	 17
215	 11
216	 13
217	 10
218	 15
219	 15
220	 16
221	 17
222	 20
223	 19
224	 17
225	 16
226	 14
227	 15
228	 13
229	 15
230	 13
231	 14
232	 14
233	 12
234	 10
235	 20
236	 14
237	 14
238	 11
239	 13
240	 11
241	 19
242	 16
243	 14
244	 14
245	 17
246	 12
247	 18
248	 20
249	 12
250	 20
251	 12
252	 11
253	 14
254	 12
255	 14
256	 13
257	 14
258	 11
259	 15
260	 15
261	 10
262	 11
263	 16
264	 14
265	 15
266	 10
267	 11
268	 17
269	 20
270	 19
271	 15
272	 10
273	 12
274	 16
275	 14
276	 15
277	 15
278	 17
279	 12
280	 12
281	 10
282	 14
283	 18
284	 20
285	 12
286	 13
287	 19
288	 18
289	 15
290	 20
291	 12
292	 17
293	 11
294	 15
295	 17
296	 18
297	 13
298	 19
299	 10
300	 11
301	 17
302	 11
303	 17
304	 20
305	 20
306	 19
307	 14
308	 14
309	 20
310	 11
311	 15
312	 16
313	 16
314	 16
315	 13
316	 14
317	 20
318	 10
319	 18
320	 18
321	 17
322	 13
323	 17
324	 18
325	 11
326	 13
327	 14
328	 12
329	 17
330	 15
331	 11
332	 11
333	 17
334	 11
335	 18
336	 14
337	 18
338	 11
339	 16
340	 19
341	 13
342	 18
343	 10
344	 18
345	 12
346	 19
347	 20
348	 13
349	 14
350	 13
351	 14
352	 11
353	 12
354	 15
355	 10
356	 16
357	 15
358	 15
359	 12
360	 15
361	 11
362	 12
363	 18
364	 10
365	 18
366	 17
367	 16
368	 19
369	 14
370	 14
371	 14
372	 16
373	 17
374	 14
375	 14
376	 16
377	 11
378	 12
379	 18
380	 15
381	 19
382	 19
383	 10
384	 11
385	 14
386	 20
387	 13
388	 16
389	 13
390	 11
391	 18
392	 20
393	 18
394	 12
395	 15
396	 17
397	 11
398	 16
399	 14

LOCATION  XCOORD  YCOORD  CAP  READY  DUE  TYP  SERVICETIME
0		39		33		-1		0		720	 0		0
1		38		29		-1		229		469		 2		6
2		25		7		-1		21		141		 2		6
3		5		17		-1		79		319		 2		6
4		6		39		-1		101		221		 2		6
5		31		32		-1		117		237		 2		6
6		2		24		-1		522		642		 2		6
7		35		3		-1		589		709		 2		6
8		45		23		-1		27		147		 2		6
9		35		8		-1		343		583		 2		6
10		45		18		-1		0		360		 2		6
11		27		35		-1		125		365		 2		6
12		32		38		-1		360		720		 2		6
13		2		27		-1		514		634		 2		6
14		22		32		-1		360		720		 2		6
15		11		36		-1		572		692		 2		6
16		39		26		-1		416		536		 2		6
17		36		43		-1		360		720		 2		6
18		33		46		-1		230		470		 2		6
19		1		36		-1		0		360		 2		6
20		5		43		-1		360		720		 2		6
21		4		20		-1		256		496		 2		6
22		49		3		-1		232		352		 2		6
23		23		5		-1		0		360		 2		6
24		18		14		-1		119		239		 2		6
25		4		41		-1		360		720		 2		6
26		18		27		-1		144		264		 2		6
27		7		41		-1		360		720		 2		6
28		19		25		-1		360		720		 2		6
29		28		37		-1		360		720		 2		6
30		23		10		-1		0		360		 2		6
31		50		18		-1		0		360		 2		6
32		38		14		-1		360		720		 2		6
33		49		42		-1		0		360		 2		6
34		17		21		-1		185		305		 2		6
35		6		46		-1		416		536		 2		6
36		44		27		-1		238		358		 2		6
37		31		10		-1		360		720		 2		6
38		27		32		-1		461		581		 2		6
39		35		1		-1		92		212		 2		6
40		50		47		-1		467		587		 2		6
41		15		36		-1		360		720		 2		6
42		36		15		-1		0		360		 2		6
43		4		1		-1		459		699		 2		6
44		9		46		-1		443		683		 2		6
45		3		3		-1		401		521		 2		6
46		14		31		-1		0		360		 2		6
47		23		2		-1		64		304		 2		6
48		14		17		-1		370		490		 2		6
49		8		50		-1		429		549		 2		6
50		48		24		-1		0		360		 2		6
51		46		31		-1		226		346		 2		6
52		43		2		-1		0		360		 2		6
53		46		14		-1		0		360		 2		6
54		20		44		-1		412		652		 2		6
55		3		17		-1		272		512		 2		6
56		24		27		-1		360		720		 2		6
57		28		12		-1		173		413		 2		6
58		23		47		-1		53		293		 2		6
59		8		30		-1		156		276		 2		6
60		41		33		-1		141		381		 2		6
61		21		29		-1		133		253		 2		6
62		24		19		-1		360		720		 2		6
63		43		40		-1		360		720		 2		6
64		5		40		-1		360		720		 2		6
65		42		21		-1		155		395		 2		6
66		37		43		-1		125		365		 2		6
67		15		48		-1		576		696		 2		6
68		18		13		-1		582		702		 2		6
69		25		15		-1		65		185		 2		6
70		46		40		-1		586		706		 2		6
71		36		50		-1		581		701		 2		6
72		11		26		-1		360		720		 2		6
73		34		30		-1		99		219		 2		6
74		35		35		-1		0		360		 2		6
75		7		37		-1		360		720		 2		6
76		1		21		-1		0		360		 2		6
77		5		38		-1		461		581		 2		6
78		45		43		-1		120		240		 2		6
79		44		14		-1		37		157		 2		6
80		42		34		-1		23		263		 2		6
81		8		29		-1		132		252		 2		6
82		27		37		-1		360		720		 2		6
83		4		8		-1		113		353		 2		6
84		4		20		-1		42		162		 2		6
85		21		47		-1		360		720		 2		6
86		46		28		-1		4		124		 2		6
87		1		9		-1		0		360		 2		6
88		47		28		-1		152		272		 2		6
89		35		10		-1		417		537		 2		6
90		11		25		-1		0		360		 2		6
91		31		14		-1		163		283		 2		6
92		42		10		-1		360		720		 2		6
93		18		35		-1		118		238		 2		6
94		36		46		-1		148		268		 2		6
95		40		3		-1		0		360		 2		6
96		43		26		-1		0		360		 2		6
97		47		3		-1		0		360		 2		6
98		6		12		-1		228		468		 2		6
99		5		3		-1		360		720		 2		6
100		3		24		-1		223		343		 2		6
101		11		30		-1		585		705		 2		6
102		20		49		-1		436		556		 2		6
103		43		30		-1		596		716		 2		6
104		22		30		-1		326		566		 2		6
105		39		6		-1		360		720		 2		6
106		39		29		-1		361		481		 2		6
107		38		31		-1		360		720		 2		6
108		37		21		-1		0		360		 2		6
109		6		36		-1		0		360		 2		6
110		3		27		-1		194		314		 2		6
111		32		32		-1		402		642		 2		6
112		29		42		-1		468		588		 2		6
113		27		22		-1		347		587		 2		6
114		25		23		-1		310		550		 2		6
115		8		1		-1		0		360		 2		6
116		42		27		-1		0		360		 2		6
117		47		29		-1		0		360		 2		6
118		8		22		-1		3		123		 2		6
119		40		19		-1		25		265		 2		6
120		27		37		-1		150		270		 2		6
121		50		47		-1		309		549		 2		6
122		1		27		-1		374		494		 2		6
123		23		24		-1		540		660		 2		6
124		28		48		-1		123		243		 2		6
125		11		22		-1		499		619		 2		6
126		18		6		-1		360		720		 2		6
127		10		32		-1		360		720		 2		6
128		31		40		-1		92		332		 2		6
129		35		20		-1		0		360		 2		6
130		9		22		-1		0		360		 2		6
131		34		44		-1		360		720		 2		6
132		38		36		-1		168		288		 2		6
133		29		5		-1		231		471		 2		6
134		30		38		-1		360		720		 2		6
135		22		38		-1		564		684		 2		6
136		47		30		-1		360		720		 2		6
137		38		11		-1		566		686		 2		6
138		46		29		-1		545		665		 2		6
139		30		3		-1		414		654		 2		6
140		7		2		-1		525		645		 2		6
141		11		7		-1		435		555		 2		6
142		35		14		-1		239		359		 2		6
143		43		29		-1		81		201		 2		6
144		40		42		-1		455		575		 2		6
145		42		11		-1		364		484		 2		6
146		18		37		-1		108		228		 2		6
147		25		23		-1		360		720		 2		6
148		30		40		-1		0		360		 2		6
149		36		23		-1		360		720		 2		6
150		9		31		-1		360		720		 2		6
151		7		39		-1		173		413		 2		6
152		20		28		-1		213		333		 2		6
153		12		50		-1		394		514		 2		6
154		29		27		-1		0		360		 2		6
155		27		12		-1		0		360		 2		6
156		49		38		-1		360		720		 2		6
157		22		36		-1		34		154		 2		6
158		14		7		-1		360		720		 2		6
159		10		32		-1		219		339		 2		6
160		30		35		-1		525		645		 2		6
161		32		10		-1		555		675		 2		6
162		25		39		-1		360		720		 2		6
163		37		45		-1		213		333		 2		6
164		32		9		-1		360		720		 2		6
165		16		5		-1		464		704		 2		6
166		17		12		-1		37		157		 2		6
167		33		36		-1		464		704		 2		6
168		13		21		-1		360		720		 2		6
169		47		34		-1		308		548		 2		6
170		16		33		-1		393		513		 2		6
171		27		23		-1		360		720		 2		6
172		22		38		-1		443		683		 2		6
173		5		50		-1		230		470		 2		6
174		37		12		-1		405		525		 2		6
175		11		40		-1		195		315		 2		6
176		28		17		-1		212		332		 2		6
177		32		48		-1		0		360		 2		6
178		21		32		-1		187		307		 2		6
179		13		18		-1		0		360		 2		6
180		13		26		-1		0		360		 2		6
181		6		28		-1		455		695		 2		6
182		44		35		-1		102		222		 2		6
183		46		13		-1		432		552		 2		6
184		37		28		-1		0		360		 2		6
185		34		26		-1		427		667		 2		6
186		10		6		-1		0		360		 2		6
187		46		26		-1		448		568		 2		6
188		6		2		-1		380		620		 2		6
189		31		40		-1		585		705		 2		6
190		30		24		-1		0		360		 2		6
191		14		16		-1		514		634		 2		6
192		3		37		-1		400		520		 2		6
193		10		37		-1		367		487		 2		6
194		45		12		-1		0		360		 2		6
195		14		37		-1		433		553		 2		6
196		40		3		-1		0		360		 2		6
197		20		21		-1		53		293		 2		6
198		13		31		-1		360		720		 2		6
199		29		49		-1		0		360		 2		6
200		2		48		-1		382		622		 2		6
201		1		49		-1		456		696		 2		6
202		10		45		-1		360		720		 2		6
203		29		4		-1		497		617		 2		6
204		20		40		-1		484		604		 2		6
205		17		2		-1		147		387		 2		6
206		45		14		-1		542		662		 2		6
207		13		37		-1		440		560		 2		6
208		12		27		-1		502		622		 2		6
209		16		8		-1		530		650		 2		6
210		17		43		-1		426		546		 2		6
211		37		16		-1		360		720		 2		6
212		5		48		-1		257		497		 2		6
213		43		15		-1		89		329		 2		6
214		3		41		-1		360		720		 2		6
215		7		11		-1		555		675		 2		6
216		12		13		-1		19		259		 2		6
217		42		16		-1		0		360		 2		6
218		19		5		-1		0		360		 2		6
219		42		43		-1		225		465		 2		6
220		37		4		-1		204		324		 2		6
221		24		16		-1		373		493		 2		6
222		2		49		-1		239		359		 2		6
223		35		36		-1		361		481		 2		6
224		40		12		-1		370		490		 2		6
225		1		39		-1		0		360		 2		6
226		13		29		-1		360		720		 2		6
227		49		5		-1		0		360		 2		6
228		12		12		-1		0		360		 2		6
229		41		11		-1		388		628		 2		6
230		37		22		-1		360		720		 2		6
231		35		1		-1		301		541		 2		6
232		41		2		-1		1		121		 2		6
233		6		40		-1		437		557		 2		6
234		37		25		-1		416		536		 2		6
235		25		14		-1		441		681		 2		6
236		34		29		-1		150		270		 2		6
237		17		48		-1		88		208		 2		6
238		45		34		-1		360		480		 2		6
239		35		23		-1		347		587		 2		6
240		14		14		-1		360		720		 2		6
241		1		4		-1		14		134		 2		6
242		9		35		-1		369		489		 2		6
243		31		24		-1		0		360		 2		6
244		41		23		-1		359		599		 2		6
245		37		35		-1		0		360		 2		6
246		28		35		-1		183		303		 2		6
247		40		23		-1		172		292		 2		6
248		27		13		-1		360		720		 2		6
249		41		5		-1		212		332		 2		6
250		40		34		-1		55		175		 2		6
251		38		23		-1		306		546		 2		6
252		32		29		-1		553		673		 2		6
253		46		47		-1		360		720		 2		6
254		31		37		-1		360		720		 2		6
255		24		36		-1		360		720		 2		6
256		24		42		-1		85		205		 2		6
257		20		4		-1		360		720		 2		6
258		46		30		-1		562		682		 2		6
259		31		12		-1		368		488		 2		6
260		42		41		-1		174		294		 2		6
261		41		15		-1		372		492		 2		6
262		17		50		-1		0		360		 2		6
263		27		9		-1		233		473		 2		6
264		18		9		-1		400		520		 2		6
265		48		3		-1		224		464		 2		6
266		36		31		-1		117		237		 2		6
267		46		39		-1		0		360		 2		6
268		10		44		-1		360		720		 2		6
269		28		17		-1		0		360		 2		6
270		12		31		-1		0		360		 2		6
271		6		15		-1		0		360		 2		6
272		2		21		-1		0		360		 2		6
273		11		50		-1		0		360		 2		6
274		49		31		-1		0		360		 2		6
275		36		24		-1		0		360		 2		6
276		43		49		-1		0		360		 2		6
277		30		20		-1		360		720		 2		6
278		3		1		-1		105		345		 2		6
279		36		3		-1		360		720		 2		6
280		39		26		-1		0		360		 2		6
281		19		49		-1		493		613		 2		6
282		31		17		-1		0		360		 2		6
283		5		43		-1		575		695		 2		6
284		45		27		-1		80		200		 2		6
285		9		2		-1		0		360		 2		6
286		42		15		-1		469		589		 2		6
287		5		48		-1		433		553		 2		6
288		30		24		-1		8		248		 2		6
289		41		45		-1		0		360		 2		6
290		17		37		-1		360		720		 2		6
291		10		16		-1		166		286		 2		6
292		47		42		-1		382		502		 2		6
293		45		31		-1		423		663		 2		6
294		24		21		-1		360		720		 2		6
295		2		49		-1		360		720		 2		6
296		24		24		-1		432		552		 2		6
297		42		8		-1		21		141		 2		6
298		4		9		-1		373		493		 2		6
299		7		22		-1		0		360		 2		6
300		37		12		-1		217		337		 2		6
301		22		42		-1		477		597		 2		6
302		31		24		-1		0		360		 2		6
303		34		15		-1		519		639		 2		6
304		44		36		-1		89		329		 2		6
305		31		34		-1		0		360		 2		6
306		38		2		-1		0		360		 2		6
307		23		39		-1		156		396		 2		6
308		13		10		-1		78		198		 2		6
309		21		10		-1		401		521		 2		6
310		20		16		-1		541		661		 2		6
311		33		23		-1		400		520		 2		6
312		42		20		-1		184		304		 2		6
313		36		48		-1		195		315		 2		6
314		9		5		-1		579		699		 2		6
315		38		36		-1		519		639		 2		6
316		16		10		-1		346		586		 2		6
317		32		12		-1		473		593		 2		6
318		42		24		-1		373		493		 2		6
319		24		34		-1		360		720		 2		6
320		26		30		-1		328		568		 2		6
321		28		2		-1		0		360		 2		6
322		32		30		-1		447		687		 2		6
323		18		35		-1		360		720		 2		6
324		26		29		-1		226		466		 2		6
325		8		5		-1		360		720		 2		6
326		49		1		-1		436		556		 2		6
327		41		7		-1		38		158		 2		6
328		47		46		-1		138		258		 2		6
329		11		35		-1		360		720		 2		6
330		4		8		-1		22		142		 2		6
331		20		36		-1		300		540		 2		6
332		3		14		-1		360		720		 2		6
333		43		26		-1		486		606		 2		6
334		49		16		-1		511		631		 2		6
335		17		1		-1		600		720		 2		6
336		50		48		-1		107		227		 2		6
337		26		25		-1		0		360		 2		6
338		27		3		-1		360		720		 2		6
339		13		50		-1		230		350		 2		6
340		25		29		-1		515		635		 2		6
341		14		50		-1		387		627		 2		6
342		21		5		-1		233		353		 2		6
343		43		37		-1		175		295		 2		6
344		24		2		-1		156		276		 2		6
345		48		6		-1		0		360		 2		6
346		38		17		-1		103		223		 2		6
347		31		16		-1		253		493		 2		6
348		43		6		-1		68		308		 2		6
349		39		40		-1		360		720		 2		6
350		47		50		-1		360		720		 2		6
351		48		48		-1		360		720		 2		6
352		26		20		-1		111		231		 2		6
353		10		1		-1		150		270		 2		6
354		34		12		-1		360		720		 2		6
355		33		23		-1		481		601		 2		6
356		25		11		-1		0		360		 2		6
357		44		21		-1		360		720		 2		6
358		12		2		-1		360		720		 2		6
359		12		34		-1		360		720		 2		6
360		1		42		-1		136		256		 2		6
361		16		22		-1		79		199		 2		6
362		35		31		-1		387		507		 2		6
363		41		32		-1		236		356		 2		6
364		36		17		-1		360		600		 2		6
365		18		19		-1		0		360		 2		6
366		21		27		-1		226		346		 2		6
367		43		10		-1		21		261		 2		6
368		7		26		-1		0		360		 2		6
369		20		26		-1		287		527		 2		6
370		15		34		-1		457		577		 2		6
371		30		38		-1		15		255		 2		6
372		31		1		-1		27		147		 2		6
373		5		30		-1		169		289		 2		6
374		27		44		-1		0		360		 2		6
375		31		10		-1		271		511		 2		6
376		26		2		-1		206		326		 2		6
377		15		27		-1		180		300		 2		6
378		6		19		-1		431		551		 2		6
379		40		34		-1		434		554		 2		6
380		28		44		-1		550		670		 2		6
381		17		34		-1		0		360		 2		6
382		21		27		-1		118		238		 2		6
383		28		5		-1		382		622		 2		6
384		43		10		-1		0		360		 2		6
385		3		6		-1		379		499		 2		6
386		7		37		-1		30		150		 2		6
387		19		17		-1		583		703		 2		6
388		35		15		-1		185		305		 2		6
389		42		4		-1		199		319		 2		6
390		39		34		-1		352		592		 2		6
391		41		10		-1		597		717		 2		6
392		32		19		-1		0		360		 2		6
393		29		46		-1		360		720		 2		6
394		46		42		-1		422		542		 2		6
395		44		45		-1		129		369		 2		6
396		29		28		-1		569		689		 2		6
397		14		38		-1		578		698		 2		6
398		12		41		-1		0		360		 2		6
399		41		49		-1		360		720		 2		6
400		10		16		-1		73		193		 2		6
401		9		37		5		87		567		 1		4
402		24		19		3		0		720		 1		4
403		25		7		5		142		622		 1		4
404		44		23		3		0		720		 1		4
405		45		22		5		66		546		 1		4
406		26		18		5		101		581		 1		4
407		24		24		4		0		720		 1		4
408		41		43		5		0		720		 1		4
409		22		14		5		219		699		 1		4
410		38		45		4		0		720		 1		4
411		11		36		5		0		720		 1		4
412		30		12		5		113		593		 1		4
413		27		44		5		0		720		 1		4
414		15		7		5		188		668		 1		4
415		44		26		5		41		521		 1		4
416		14		14		5		159		639		 1		4
417		18		38		5		0		720		 1		4
418		25		17		5		27		507		 1		4
419		38		6		5		170		650		 1		4
420		41		36		5		162		642		 1		4
421		28		43		3		0		720		 1		4
422		18		23		4		0		720		 1		4
423		17		28		5		157		637		 1		4
424		25		40		5		195		675		 1		4
425		25		19		3		0		720		 1		4
426		6		9		5		202		682		 1		4
427		37		32		5		84		564		 1		4
428		35		19		4		0		720		 1		4
429		31		16		5		149		629		 1		4
430		23		19		5		0		720		 1		4
431		37		11		5		214		694		 1		4
432		42		35		4		0		720		 1		4
433		44		10		5		169		649		 1		4
434		6		14		5		46		526		 1		4
435		11		19		3		0		720		 1		4
436		18		38		3		0		720		 1		4
437		17		38		5		0		720		 1		4
438		31		9		5		77		557		 1		4
439		26		10		3		0		720		 1		4
440		17		14		5		70		550		 1		4
441		31		8		4		0		720		 1		4
442		45		9		3		0		720		 1		4
443		37		6		5		207		687		 1		4
444		39		13		5		96		576		 1		4
445		37		25		5		134		614		 1		4
446		8		27		5		8		488		 1		4
447		14		7		5		119		599		 1		4
448		15		43		3		0		720		 1		4
449		22		18		5		126		606		 1		4
450		5		9		5		33		513		 1		4
451		36		40		5		15		495		 1		4
452		28		18		5		26		506		 1		4
453		6		14		5		0		720		 1		4
454		24		30		5		0		720		 1		4
455		35		20		5		155		635		 1		4
456		43		45		5		239		719		 1		4
457		35		13		5		238		718		 1		4
458		45		14		3		0		720		 1		4
459		31		8		5		66		546		 1		4
460		7		37		5		144		624		 1		4
461		6		15		5		93		573		 1		4
462		27		32		5		19		499		 1		4
463		18		8		5		113		593		 1		4
464		44		7		5		178		658		 1		4
465		32		19		5		195		675		 1		4
466		25		27		3		0		720		 1		4
467		15		30		5		0		720		 1		4
468		32		27		3		0		720		 1		4
469		42		25		4		0		720		 1		4
470		16		31		5		187		667		 1		4
471		25		25		5		82		562		 1		4
472		21		28		5		0		720		 1		4
473		45		31		5		38		518		 1		4
474		38		7		3		0		720		 1		4
475		17		44		5		54		534		 1		4
476		12		39		4		0		720		 1		4
477		42		33		5		23		503		 1		4
478		30		42		5		0		720		 1		4
479		29		38		5		173		653		 1		4
480		44		6		3		0		720		 1		4
OPTION  LOCATION  CUSTOMER  PRIO  SERVICETIME   COST
0		436		0		0		2		0
1		437		1		0		2		0
2		429		2		0		2		0
3		470		3		0		2		0
4		470		4		0		2		0
5		467		5		0		2		0
6		462		6		0		2		0
7		438		7		0		2		0
8		415		8		0		2		0
9		458		9		0		2		0
10		441		10		0		2		0
11		406		11		0		2		0
12		408		12		0		2		0
13		458		13		0		2		0
14		410		14		0		2		0
15		416		15		0		2		0
16		434		16		0		2		0
17		420		17		0		2		0
18		434		18		0		2		0
19		417		19		0		2		0
20		464		20		0		2		0
21		441		21		0		2		0
22		404		22		0		2		0
23		453		23		0		2		0
24		460		24		0		2		0
25		469		25		0		2		0
26		450		26		0		2		0
27		449		27		0		2		0
28		447		28		0		2		0
29		432		29		0		2		0
30		433		30		0		2		0
31		430		31		0		2		0
32		480		32		0		2		0
33		402		33		0		2		0
34		472		34		0		2		0
35		468		35		0		2		0
36		448		36		0		2		0
37		401		37		0		2		0
38		475		38		0		2		0
39		473		39		0		2		0
40		417		40		0		2		0
41		453		41		0		2		0
42		408		42		0		2		0
43		446		43		0		2		0
44		405		44		0		2		0
45		408		45		0		2		0
46		462		46		0		2		0
47		445		47		0		2		0
48		459		48		0		2		0
49		470		49		0		2		0
50		427		50		0		2		0
51		434		51		0		2		0
52		478		52		0		2		0
53		424		53		0		2		0
54		460		54		0		2		0
55		407		55		0		2		0
56		438		56		0		2		0
57		427		57		0		2		0
58		478		58		0		2		0
59		402		59		0		2		0
60		419		60		0		2		0
61		462		61		0		2		0
62		444		62		0		2		0
63		423		63		0		2		0
64		442		64		0		2		0
65		468		65		0		2		0
66		478		66		0		2		0
67		442		67		0		2		0
68		453		68		0		2		0
69		402		69		0		2		0
70		435		70		0		2		0
71		470		71		0		2		0
72		442		72		0		2		0
73		445		73		0		2		0
74		470		74		0		2		0
75		430		75		0		2		0
76		443		76		0		2		0
77		460		77		0		2		0
78		474		78		0		2		0
79		453		79		0		2		0
80		1		80		0		5		0
81		2		81		0		5		0
82		3		82		0		5		0
83		4		83		0		5		0
84		5		84		0		5		0
85		6		85		0		5		0
86		7		86		0		5		0
87		8		87		0		5		0
88		9		88		0		5		0
89		10		89		0		5		0
90		11		90		0		5		0
91		12		91		0		5		0
92		13		92		0		5		0
93		14		93		0		5		0
94		15		94		0		5		0
95		16		95		0		5		0
96		17		96		0		5		0
97		18		97		0		5		0
98		19		98		0		5		0
99		20		99		0		5		0
100		21		100		0		5		0
101		22		101		0		5		0
102		23		102		0		5		0
103		24		103		0		5		0
104		25		104		0		5		0
105		26		105		0		5		0
106		27		106		0		5		0
107		28		107		0		5		0
108		29		108		0		5		0
109		30		109		0		5		0
110		31		110		0		5		0
111		32		111		0		5		0
112		33		112		0		5		0
113		34		113		0		5		0
114		35		114		0		5		0
115		36		115		0		5		0
116		37		116		0		5		0
117		38		117		0		5		0
118		39		118		0		5		0
119		40		119		0		5		0
120		41		120		0		5		0
121		42		121		0		5		0
122		43		122		0		5		0
123		44		123		0		5		0
124		45		124		0		5		0
125		46		125		0		5		0
126		47		126		0		5		0
127		48		127		0		5		0
128		49		128		0		5		0
129		50		129		0		5		0
130		51		130		0		5		0
131		52		131		0		5		0
132		53		132		0		5		0
133		54		133		0		5		0
134		55		134		0		5		0
135		56		135		0		5		0
136		57		136		0		5		0
137		58		137		0		5		0
138		59		138		0		5		0
139		60		139		0		5		0
140		61		140		0		5		0
141		62		141		0		5		0
142		63		142		0		5		0
143		64		143		0		5		0
144		65		144		0		5		0
145		66		145		0		5		0
146		67		146		0		5		0
147		68		147		0		5		0
148		69		148		0		5		0
149		70		149		0		5		0
150		71		150		0		5		0
151		72		151		0		5		0
152		73		152		0		5		0
153		74		153		0		5		0
154		75		154		0		5		0
155		76		155		0		5		0
156		77		156		0		5		0
157		78		157		0		5		0
158		79		158		0		5		0
159		80		159		0		5		0
160		81		160		1		5		0
161		423		160		0		2		0
162		82		161		1		5		0
163		452		161		0		2		0
164		83		162		1		5		0
165		426		162		0		2		0
166		84		163		0		5		0
167		473		163		1		2		0
168		85		164		1		5		0
169		444		164		0		2		0
170		86		165		1		5		0
171		473		165		0		2		0
172		87		166		1		5		0
173		404		166		0		2		0
174		88		167		0		5		0
175		409		167		1		2		0
176		89		168		0		5		0
177		441		168		1		2		0
178		90		169		1		5		0
179		452		169		0		2		0
180		91		170		1		5		0
181		457		170		0		2		0
182		92		171		0		5		0
183		433		171		1		2		0
184		93		172		1		5		0
185		467		172		0		2		0
186		94		173		0		5		0
187		478		173		1		2		0
188		95		174		0		5		0
189		457		174		1		2		0
190		96		175		1		5		0
191		414		175		0		2		0
192		97		176		0		5		0
193		437		176		1		2		0
194		98		177		0		5		0
195		407		177		1		2		0
196		99		178		0		5		0
197		470		178		1		2		0
198		100		179		1		5		0
199		467		179		0		2		0
200		101		180		1		5		0
201		446		180		0		2		0
202		102		181		1		5		0
203		448		181		0		2		0
204		103		182		1		5		0
205		432		182		0		2		0
206		104		183		0		5		0
207		458		183		1		2		0
208		105		184		1		5		0
209		464		184		0		2		0
210		106		185		1		5		0
211		469		185		0		2		0
212		107		186		0		5		0
213		440		186		1		2		0
214		108		187		1		5		0
215		445		187		0		2		0
216		109		188		0		5		0
217		460		188		1		2		0
218		110		189		0		5		0
219		460		189		1		2		0
220		111		190		1		5		0
221		427		190		0		2		0
222		112		191		1		5		0
223		458		191		0		2		0
224		113		192		0		5		0
225		406		192		1		2		0
226		114		193		0		5		0
227		425		193		1		2		0
228		115		194		1		5		0
229		447		194		0		2		0
230		116		195		0		5		0
231		452		195		1		2		0
232		117		196		1		5		0
233		445		196		0		2		0
234		118		197		0		5		0
235		461		197		1		2		0
236		119		198		1		5		0
237		420		198		0		2		0
238		120		199		0		5		0
239		462		199		1		2		0
240		121		200		1		5		0
241		432		200		0		2		0
242		122		201		1		5		0
243		410		201		0		2		0
244		123		202		1		5		0
245		472		202		0		2		0
246		124		203		0		5		0
247		479		203		1		2		0
248		125		204		1		5		0
249		422		204		0		2		0
250		126		205		0		5		0
251		443		205		1		2		0
252		127		206		0		5		0
253		427		206		1		2		0
254		128		207		1		5		0
255		478		207		0		2		0
256		129		208		1		5		0
257		465		208		0		2		0
258		130		209		0		5		0
259		423		209		1		2		0
260		131		210		0		5		0
261		478		210		1		2		0
262		132		211		1		5		0
263		445		211		0		2		0
264		133		212		1		5		0
265		437		212		0		2		0
266		134		213		1		5		0
267		413		213		0		2		0
268		135		214		0		5		0
269		412		214		1		2		0
270		136		215		1		5		0
271		438		215		0		2		0
272		137		216		1		5		0
273		434		216		0		2		0
274		138		217		0		5		0
275		477		217		1		2		0
276		139		218		0		5		0
277		412		218		1		2		0
278		140		219		0		5		0
279		479		219		1		2		0
280		141		220		0		5		0
281		420		220		1		2		0
282		142		221		0		5		0
283		444		221		1		2		0
284		143		222		0		5		0
285		447		222		1		2		0
286		144		223		0		5		0
287		431		223		1		2		0
288		145		224		0		5		0
289		407		224		1		2		0
290		146		225		0		5		0
291		448		225		1		2		0
292		147		226		1		5		0
293		437		226		0		2		0
294		148		227		0		5		0
295		432		227		1		2		0
296		149		228		0		5		0
297		465		228		1		2		0
298		150		229		1		5		0
299		435		229		0		2		0
300		151		230		1		5		0
301		466		230		0		2		0
302		152		231		1		5		0
303		450		231		0		2		0
304		153		232		1		5		0
305		401		232		0		2		0
306		154		233		1		5		0
307		407		233		0		2		0
308		155		234		0		5		0
309		453		234		1		2		0
310		156		235		1		5		0
311		470		235		0		2		0
312		157		236		0		5		0
313		423		236		1		2		0
314		158		237		0		5		0
315		416		237		1		2		0
316		159		238		0		5		0
317		435		238		1		2		0
318		160		239		1		5		0
319		478		239		0		2		0
320		161		240		0		5		0
321		473		240		1		2		0
322		480		240		2		2		0
323		162		241		1		5		0
324		454		241		2		2		0
325		431		241		0		2		0
326		163		242		1		5		0
327		451		242		2		2		0
328		479		242		0		2		0
329		164		243		1		5		0
330		412		243		2		2		0
331		441		243		0		2		0
332		165		244		1		5		0
333		447		244		2		2		0
334		463		244		0		2		0
335		166		245		1		5		0
336		416		245		2		2		0
337		463		245		0		2		0
338		167		246		0		5		0
339		443		246		1		2		0
340		464		246		2		2		0
341		168		247		1		5		0
342		423		247		2		2		0
343		446		247		0		2		0
344		169		248		1		5		0
345		432		248		0		2		0
346		435		248		2		2		0
347		170		249		0		5		0
348		437		249		2		2		0
349		459		249		1		2		0
350		171		250		0		5		0
351		402		250		2		2		0
352		476		250		1		2		0
353		172		251		1		5		0
354		424		251		2		2		0
355		406		251		0		2		0
356		173		252		0		5		0
357		432		252		2		2		0
358		474		252		1		2		0
359		174		253		1		5		0
360		453		253		2		2		0
361		461		253		0		2		0
362		175		254		0		5		0
363		435		254		2		2		0
364		430		254		1		2		0
365		176		255		1		5		0
366		452		255		2		2		0
367		437		255		0		2		0
368		177		256		2		5		0
369		433		256		0		2		0
370		478		256		1		2		0
371		178		257		1		5		0
372		471		257		2		2		0
373		450		257		0		2		0
374		179		258		0		5		0
375		416		258		2		2		0
376		440		258		1		2		0
377		180		259		1		5		0
378		467		259		0		2		0
379		479		259		2		2		0
380		181		260		1		5		0
381		410		260		2		2		0
382		451		260		0		2		0
383		182		261		0		5		0
384		462		261		1		2		0
385		415		261		2		2		0
386		183		262		2		5		0
387		433		262		0		2		0
388		442		262		1		2		0
389		184		263		2		5		0
390		432		263		1		2		0
391		453		263		0		2		0
392		185		264		1		5		0
393		428		264		2		2		0
394		468		264		0		2		0
395		186		265		2		5		0
396		450		265		0		2		0
397		420		265		1		2		0
398		187		266		2		5		0
399		404		266		0		2		0
400		420		266		1		2		0
401		188		267		0		5		0
402		473		267		2		2		0
403		464		267		1		2		0
404		189		268		1		5		0
405		421		268		2		2		0
406		466		268		0		2		0
407		190		269		2		5		0
408		471		269		0		2		0
409		432		269		1		2		0
410		191		270		1		5		0
411		435		270		2		2		0
412		461		270		0		2		0
413		192		271		2		5		0
414		411		271		0		2		0
415		401		271		1		2		0
416		193		272		2		5		0
417		476		272		1		2		0
418		428		272		0		2		0
419		194		273		1		5		0
420		464		273		2		2		0
421		450		273		0		2		0
422		195		274		1		5		0
423		437		274		2		2		0
424		411		274		0		2		0
425		196		275		2		5		0
426		464		275		1		2		0
427		474		275		0		2		0
428		197		276		1		5		0
429		407		276		0		2		0
430		422		276		2		2		0
431		198		277		1		5		0
432		407		277		2		2		0
433		465		277		0		2		0
434		199		278		0		5		0
435		421		278		1		2		0
436		478		278		2		2		0
437		200		279		2		5		0
438		411		279		0		2		0
439		476		279		1		2		0
440		201		280		2		5		0
441		401		280		0		2		0
442		476		280		1		2		0
443		202		281		1		5		0
444		460		281		2		2		0
445		444		281		0		2		0
446		203		282		1		5		0
447		403		282		0		2		0
448		415		282		2		2		0
449		204		283		0		5		0
450		424		283		2		2		0
451		436		283		1		2		0
452		205		284		2		5		0
453		447		284		0		2		0
454		477		284		1		2		0
455		206		285		2		5		0
456		433		285		0		2		0
457		444		285		1		2		0
458		207		286		2		5		0
459		415		286		0		2		0
460		474		286		1		2		0
461		208		287		2		5		0
462		421		287		0		2		0
463		451		287		1		2		0
464		209		288		0		5		0
465		414		288		2		2		0
466		468		288		1		2		0
467		210		289		2		5		0
468		423		289		1		2		0
469		451		289		0		2		0
470		211		290		2		5		0
471		461		290		0		2		0
472		432		290		1		2		0
473		212		291		1		5		0
474		420		291		2		2		0
475		404		291		0		2		0
476		213		292		1		5		0
477		420		292		2		2		0
478		417		292		0		2		0
479		214		293		2		5		0
480		411		293		0		2		0
481		448		293		1		2		0
482		215		294		0		5		0
483		436		294		1		2		0
484		469		294		2		2		0
485		216		295		1		5		0
486		416		295		2		2		0
487		453		295		0		2		0
488		217		296		0		5		0
489		458		296		2		2		0
490		431		296		1		2		0
491		218		297		1		5		0
492		414		297		0		2		0
493		463		297		2		2		0
494		219		298		0		5		0
495		410		298		1		2		0
496		448		298		2		2		0
497		220		299		0		5		0
498		474		299		1		2		0
499		451		299		2		2		0
500		221		300		1		5		0
501		411		300		2		2		0
502		467		300		0		2		0
503		222		301		2		5		0
504		470		301		1		2		0
505		448		301		0		2		0
506		223		302		2		5		0
507		433		302		1		2		0
508		473		302		0		2		0
509		224		303		0		5		0
510		433		303		1		2		0
511		444		303		2		2		0
512		225		304		0		5		0
513		460		304		2		2		0
514		476		304		1		2		0
515		226		305		1		5		0
516		426		305		0		2		0
517		480		305		2		2		0
518		227		306		1		5		0
519		480		306		2		2		0
520		463		306		0		2		0
521		228		307		2		5		0
522		447		307		0		2		0
523		434		307		1		2		0
524		229		308		0		5		0
525		446		308		1		2		0
526		427		308		2		2		0
527		230		309		1		5		0
528		428		309		2		2		0
529		469		309		0		2		0
530		231		310		1		5		0
531		474		310		2		2		0
532		401		310		0		2		0
533		232		311		0		5		0
534		443		311		1		2		0
535		401		311		2		2		0
536		233		312		1		5		0
537		480		312		2		2		0
538		462		312		0		2		0
539		234		313		2		5		0
540		451		313		1		2		0
541		413		313		0		2		0
542		235		314		0		5		0
543		425		314		1		2		0
544		418		314		2		2		0
545		236		315		2		5		0
546		402		315		0		2		0
547		411		315		1		2		0
548		237		316		0		5		0
549		436		316		1		2		0
550		417		316		2		2		0
551		238		317		2		5		0
552		420		317		0		2		0
553		434		317		1		2		0
554		239		318		2		5		0
555		476		318		0		2		0
556		416		318		1		2		0
557		240		319		2		5		0
558		435		319		0		2		0
559		440		319		1		2		0
560		241		320		2		5		0
561		242		320		1		5		0
562		451		320		0		2		0
563		243		321		2		5		0
564		244		321		0		5		0
565		458		321		1		2		0
566		245		322		2		5		0
567		246		322		0		5		0
568		431		322		1		2		0
569		247		323		2		5		0
570		248		323		1		5		0
571		412		323		0		2		0
572		249		324		1		5		0
573		250		324		2		5		0
574		419		324		0		2		0
575		251		325		0		5		0
576		252		325		1		5		0
577		445		325		2		2		0
578		253		326		0		5		0
579		254		326		1		5		0
580		427		326		2		2		0
581		255		327		0		5		0
582		256		327		1		5		0
583		474		327		2		2		0
584		257		328		0		5		0
585		258		328		2		5		0
586		438		328		1		2		0
587		259		329		0		5		0
588		260		329		2		5		0
589		455		329		1		2		0
590		261		330		0		5		0
591		262		330		2		5		0
592		404		330		1		2		0
593		263		331		0		5		0
594		264		331		1		5		0
595		425		331		2		2		0
596		265		332		0		5		0
597		266		332		2		5		0
598		441		332		1		2		0
599		267		333		1		5		0
600		268		333		0		5		0
601		476		333		2		2		0
602		269		334		0		5		0
603		270		334		1		5		0
604		452		334		2		2		0
605		271		335		1		5		0
606		272		335		2		5		0
607		426		335		0		2		0
608		273		336		0		5		0
609		274		336		1		5		0
610		405		336		2		2		0
611		275		337		2		5		0
612		276		337		0		5		0
613		445		337		1		2		0
614		277		338		2		5		0
615		278		338		0		5		0
616		452		338		1		2		0
617		279		339		2		5		0
618		280		339		1		5		0
619		437		339		0		2		0
620		281		340		0		5		0
621		282		340		2		5		0
622		428		340		1		2		0
623		283		341		1		5		0
624		284		341		0		5		0
625		478		341		2		2		0
626		285		342		1		5		0
627		286		342		2		5		0
628		453		342		0		2		0
629		287		343		0		5		0
630		288		343		1		5		0
631		468		343		2		2		0
632		289		344		1		5		0
633		290		344		2		5		0
634		436		344		0		2		0
635		291		345		0		5		0
636		292		345		1		5		0
637		479		345		2		2		0
638		293		346		0		5		0
639		294		346		2		5		0
640		402		346		1		2		0
641		295		347		2		5		0
642		296		347		0		5		0
643		407		347		1		2		0
644		297		348		0		5		0
645		298		348		1		5		0
646		480		348		2		2		0
647		299		349		1		5		0
648		300		349		0		5		0
649		423		349		2		2		0
650		301		350		0		5		0
651		302		350		1		5		0
652		431		350		2		2		0
653		303		351		1		5		0
654		304		351		0		5		0
655		444		351		2		2		0
656		305		352		1		5		0
657		306		352		2		5		0
658		443		352		0		2		0
659		307		353		1		5		0
660		308		353		2		5		0
661		453		353		0		2		0
662		309		354		0		5		0
663		310		354		2		5		0
664		463		354		1		2		0
665		311		355		1		5		0
666		312		355		0		5		0
667		418		355		2		2		0
668		313		356		0		5		0
669		314		356		1		5		0
670		450		356		2		2		0
671		315		357		1		5		0
672		316		357		0		5		0
673		431		357		2		2		0
674		317		358		0		5		0
675		318		358		1		5		0
676		416		358		2		2		0
677		319		359		0		5		0
678		320		359		1		5		0
679		471		359		2		2		0
680		321		360		2		5		0
681		322		360		0		5		0
682		463		360		1		2		0
683		323		361		0		5		0
684		324		361		1		5		0
685		425		361		2		2		0
686		325		362		2		5		0
687		326		362		0		5		0
688		414		362		1		2		0
689		327		363		1		5		0
690		328		363		0		5		0
691		464		363		2		2		0
692		329		364		1		5		0
693		330		364		2		5		0
694		430		364		0		2		0
695		331		365		1		5		0
696		332		365		2		5		0
697		417		365		0		2		0
698		333		366		0		5		0
699		334		366		1		5		0
700		415		366		2		2		0
701		335		367		2		5		0
702		336		367		1		5		0
703		414		367		0		2		0
704		337		368		1		5		0
705		338		368		2		5		0
706		472		368		0		2		0
707		339		369		1		5		0
708		340		369		2		5		0
709		466		369		0		2		0
710		341		370		1		5		0
711		342		370		2		5		0
712		439		370		0		2		0
713		343		371		0		5		0
714		344		371		1		5		0
715		477		371		2		2		0
716		345		372		0		5		0
717		346		372		2		5		0
718		427		372		1		2		0
719		347		373		2		5		0
720		348		373		1		5		0
721		429		373		0		2		0
722		349		374		1		5		0
723		350		374		2		5		0
724		414		374		0		2		0
725		351		375		2		5		0
726		352		375		0		5		0
727		402		375		1		2		0
728		353		376		1		5		0
729		354		376		0		5		0
730		404		376		2		2		0
731		355		377		2		5		0
732		356		377		0		5		0
733		439		377		1		2		0
734		357		378		0		5		0
735		358		378		1		5		0
736		416		378		2		2		0
737		359		379		1		5		0
738		360		379		0		5		0
739		411		379		2		2		0
740		361		380		1		5		0
741		362		380		2		5		0
742		470		380		0		2		0
743		363		381		0		5		0
744		364		381		2		5		0
745		432		381		1		2		0
746		365		382		2		5		0
747		366		382		0		5		0
748		422		382		1		2		0
749		367		383		2		5		0
750		368		383		1		5		0
751		405		383		0		2		0
752		369		384		2		5		0
753		370		384		1		5		0
754		422		384		0		2		0
755		371		385		0		5		0
756		372		385		1		5		0
757		478		385		2		2		0
758		373		386		2		5		0
759		374		386		0		5		0
760		478		386		1		2		0
761		375		387		0		5		0
762		376		387		1		5		0
763		431		387		2		2		0
764		377		388		2		5		0
765		378		388		0		5		0
766		428		388		1		2		0
767		379		389		2		5		0
768		380		389		0		5		0
769		421		389		1		2		0
770		381		390		0		5		0
771		382		390		2		5		0
772		417		390		1		2		0
773		383		391		2		5		0
774		384		391		0		5		0
775		442		391		1		2		0
776		385		392		1		5		0
777		386		392		0		5		0
778		425		392		2		2		0
779		387		393		1		5		0
780		388		393		0		5		0
781		428		393		2		2		0
782		389		394		2		5		0
783		390		394		0		5		0
784		480		394		1		2		0
785		391		395		0		5		0
786		392		395		2		5		0
787		439		395		1		2		0
788		393		396		2		5		0
789		394		396		0		5		0
790		464		396		1		2		0
791		395		397		1		5		0
792		396		397		2		5		0
793		456		397		0		2		0
794		397		398		2		5		0
795		398		398		0		5		0
796		470		398		1		2		0
797		399		399		0		5		0
798		400		399		1		5		0
799		434		399		2		2		0
